500
750
599
599
599
598
598
598
598
597
596
595
595
593
592
590
590
589
588
587
587
584
584
584
582
581
581
580
580
578
578
575
574
574
573
573
573
573
572
572
571
570
569
569
565
564
562
561
560
559
559
558
557
556
556
555
550
549
549
548
546
546
545
545
544
544
544
543
543
542
541
541
541
541
539
538
538
538
537
537
536
536
535
534
534
534
532
529
527
527
526
525
524
523
523
522
521
521
520
518
513
513
512
511
510
510
509
509
508
508
506
505
505
500
499
498
496
496
496
494
494
493
491
490
488
486
484
484
481
478
476
476
475
474
473
473
472
472
471
470
469
468
466
466
466
465
464
464
464
460
459
457
455
455
454
452
451
450
450
449
449
447
447
446
446
445
443
443
442
442
441
441
435
435
434
433
431
430
422
421
420
419
416
413
412
412
411
411
411
411
411
410
405
405
404
400
397
396
395
393
391
390
389
389
389
389
388
387
386
385
384
384
383
383
382
381
379
378
377
375
374
374
374
373
373
372
371
371
371
369
368
368
367
367
367
366
365
365
363
361
361
360
359
359
359
359
358
358
355
354
354
354
353
352
352
351
348
348
348
347
347
345
345
344
344
343
342
341
340
337
334
334
334
333
331
331
329
328
327
327
326
323
322
322
318
317
316
316
315
314
313
312
310
308
308
307
306
302
302
301
301
300
299
299
299
298
297
296
296
292
289
288
288
287
286
285
285
284
283
283
283
282
282
282
280
279
279
278
278
277
277
277
275
273
273
272
271
270
269
268
266
265
265
265
262
261
259
258
258
255
252
251
250
250
249
245
243
243
243
239
236
235
234
233
233
232
232
232
231
230
229
229
229
224
224
223
222
219
219
219
218
215
215
215
213
213
213
213
213
212
212
211
210
208
208
208
207
204
203
201
199
198
198
197
197
196
195
195
191
190
188
187
186
185
184
183
180
180
179
179
179
179
179
178
178
178
177
176
174
171
169
168
162
161
158
158
156
153
152
152
151
148
148
146
143
143
141
140
140
139
138
138
135
135
135
135
135
134
134
133
132
129
129
127
126
124
124
122
122
118
117
115
115
115
115
113
112
110
107
107
106
105
104
103
100
100
98
98
97
96
96
94
91
90
88
88
87
86
84
79
77
75
